/* Objective function */
min: +C1 +C2 +C3 +C4 +C5 +C6 +C7 +C8 +C9 +C10 +C11 +C12 +C13 +C14 +C15 +C16 +C17 +C18 +C19 +C20 +C21 +C22
 +C23 +C24 +C25 +C26 +C27 +C28 +C29 +C30 +C31 +C32 +C33 +C34 +C35 +C36 +C37 +C38 +C39 +C40 +C41 +C42
 +C43 +C44 +C45 +C46 +C47 +C48 +C49 +C50 +C51 +C52 +C53 +C54 +C55 +C56 +C57 +C58 +C59 +C60 +C61 +C62
 +C63 +C64 +C65 +C66 +C67 +C68 +C69 +C70 +C71 +C72 +C73 +C74 +C75 +C76 +C77 +C78 +C79 +C80 +C81 +C82
 +C83 +C84 +C85 +C86 +C87 +C88 +C89 +C90 +C91 +C92 +C93 +C94 +C95 +C96 +C97 +C98 +C99 +C100 +C101 +C102
 +C103 +C104 +C105 +C106 +C107 +C108 +C109 +C110 +C111 +C112 +C113 +C114 +C115 +C116 +C117 +C118 +C119
 +C120 +C121 +C122 +C123 +C124 +C125 +C126 +C127 +C128 +C129 +C130 +C131 +C132 +C133 +C134 +C135 +C136
 +C137 +C138 +C139 +C140 +C141 +C142 +C143 +C144 +C145 +C146 +C147 +C148 +C149 +C150 +C151 +C152 +C153
 +C154 +C155 +C156;

/* Constraints */
R1: +100 C145 >= 110;
R2: +100 C146 >= 0;
R3: +100 C147 >= 0;
R4: +100 C148 >= 0;
R5: +100 C149 >= 0;
R6: +100 C150 >= 0;
R7: +100 C151 >= 110;
R8: +100 C152 >= 0;
R9: +100 C153 >= 0;
R10: +100 C154 >= 0;
R11: +100 C155 >= 0;
R12: +100 C156 >= 0;
+C1 +C3 -C145 = 0;
+C1 +C8 -C145 = 0;
+C8 +C9 -C12 = 0;
-C3 -C9 +C12 = 0;
+C13 +C15 -C146 = 0;
-C13 +C17 = 0;
+C17 +C24 -C146 = 0;
-C15 +C24 = 0;
+C25 +C27 -C147 = 0;
-C25 +C29 -C32 = 0;
-C29 +C32 +C33 = 0;
+C27 +C33 -C147 = 0;
+C39 -C40 -C46 = 0;
+C40 +C41 -C148 = 0;
+C41 +C48 -C148 = 0;
-C39 +C46 +C48 = 0;
+C51 -C52 = 0;
+C52 +C53 -C149 = 0;
-C53 +C57 = 0;
+C51 +C57 -C149 = 0;
+C61 +C63 -C64 = 0;
-C61 +C64 -C68 = 0;
+C68 +C69 -C150 = 0;
+C63 +C69 -C150 = 0;
+C73 +C75 -C151 = 0;
+C73 +C80 -C151 = 0;
+C80 +C81 -C84 = 0;
-C75 -C81 +C84 = 0;
+C85 +C87 -C152 = 0;
-C85 +C89 = 0;
+C89 +C96 -C152 = 0;
-C87 +C96 = 0;
+C97 +C99 -C153 = 0;
-C97 +C101 -C104 = 0;
-C101 +C104 +C105 = 0;
+C99 +C105 -C153 = 0;
+C111 -C112 -C118 = 0;
+C112 +C113 -C154 = 0;
+C113 +C120 -C154 = 0;
-C111 +C118 +C120 = 0;
+C123 -C124 = 0;
+C124 +C125 -C155 = 0;
-C125 +C129 = 0;
+C123 +C129 -C155 = 0;
+C133 +C135 -C136 = 0;
-C133 +C136 -C140 = 0;
+C140 +C141 -C156 = 0;
+C135 +C141 -C156 = 0;
+C1 +C4 +C13 +C16 +C25 +C28 +C37 +C40 +C49 +C52 +C61 +C64 +C73 +C76 +C85 +C88 +C97 +C100 +C109 +C112
 +C121 +C124 +C133 +C136 <= 80;
+C2 +C7 +C14 +C19 +C26 +C31 +C38 +C43 +C50 +C55 +C62 +C67 +C74 +C79 +C86 +C91 +C98 +C103 +C110 +C115
 +C122 +C127 +C134 +C139 <= 0;
+C3 +C10 +C15 +C22 +C27 +C34 +C39 +C46 +C51 +C58 +C63 +C70 +C75 +C82 +C87 +C94 +C99 +C106 +C111 +C118
 +C123 +C130 +C135 +C142 <= 80;
+C5 +C8 +C17 +C20 +C29 +C32 +C41 +C44 +C53 +C56 +C65 +C68 +C77 +C80 +C89 +C92 +C101 +C104 +C113 +C116
 +C125 +C128 +C137 +C140 <= 80;
+C6 +C11 +C18 +C23 +C30 +C35 +C42 +C47 +C54 +C59 +C66 +C71 +C78 +C83 +C90 +C95 +C102 +C107 +C114 +C119
 +C126 +C131 +C138 +C143 <= 0;
+C9 +C12 +C21 +C24 +C33 +C36 +C45 +C48 +C57 +C60 +C69 +C72 +C81 +C84 +C93 +C96 +C105 +C108 +C117 +C120
 +C129 +C132 +C141 +C144 <= 80;
+C1 +C73 <= 2;
+C2 +C74 <= 2;
+C3 +C75 <= 2;
+C5 +C77 <= 2;
+C6 +C78 <= 2;
+C9 +C81 <= 2;
+C13 +C85 <= 0;
+C14 +C86 <= 0;
+C15 +C87 <= 0;
+C17 +C89 <= 0;
+C18 +C90 <= 0;
+C21 +C93 <= 0;
+C25 +C97 <= 0;
+C26 +C98 <= 0;
+C27 +C99 <= 0;
+C29 +C101 <= 0;
+C30 +C102 <= 0;
+C33 +C105 <= 0;
+C37 +C109 <= 0;
+C38 +C110 <= 0;
+C39 +C111 <= 0;
+C41 +C113 <= 0;
+C42 +C114 <= 0;
+C45 +C117 <= 0;
+C49 +C121 <= 0;
+C50 +C122 <= 0;
+C51 +C123 <= 0;
+C53 +C125 <= 0;
+C54 +C126 <= 0;
+C57 +C129 <= 0;
+C61 +C133 <= 0;
+C62 +C134 <= 0;
+C63 +C135 <= 0;
+C65 +C137 <= 0;
+C66 +C138 <= 0;
+C69 +C141 <= 0;

/* Integer definitions */
int C1,C2,C3,C4,C5,C6,C7,C8,C9,C10,C11,C12,C13,C14,C15,C16,C17,C18,C19,C20,C21,C22,C23,C24,C25,C26,C27,C28,C29,C30,C31,C32,C33,C34,C35,C36,C37,C38,C39,C40,C41,C42,C43,C44,C45,C46,C47,C48,C49,C50,C51,C52,C53,C54,C55,C56,C57,C58,C59,C60,C61,C62,C63,C64,C65,C66,C67,C68,C69,C70,C71,C72,C73,C74,C75,C76,C77,C78,C79,C80,C81,C82,C83,C84,C85,C86,C87,C88,C89,C90,C91,C92,C93,C94,C95,C96,C97,C98,C99,C100,C101,C102,C103,C104,C105,C106,C107,C108,C109,C110,C111,C112,C113,C114,C115,C116,C117,C118,C119,C120,C121,C122,C123,C124,C125,C126,C127,C128,C129,C130,C131,C132,C133,C134,C135,C136,C137,C138,C139,C140,C141,C142,C143,C144,C145,C146,C147,C148,C149,C150,C151,C152,C153,C154,C155,C156;
